
Gurobi 6.0.5 (linux64) logging started Fri Oct 20 10:37:35 2017


Gurobi 6.0.5 (linux64) logging started Fri Oct 20 10:37:35 2017


Gurobi 6.0.5 (linux64) logging started Fri Oct 20 10:37:36 2017


Gurobi 6.0.5 (linux64) logging started Fri Oct 20 10:37:37 2017


Gurobi 6.0.5 (linux64) logging started Fri Oct 20 10:37:38 2017


Gurobi 6.0.5 (linux64) logging started Fri Oct 20 10:37:39 2017


Gurobi 6.0.5 (linux64) logging started Fri Oct 20 10:37:40 2017


Gurobi 6.0.5 (linux64) logging started Fri Oct 20 10:37:42 2017


Gurobi 6.0.5 (linux64) logging started Fri Oct 20 10:37:44 2017


Gurobi 6.0.5 (linux64) logging started Fri Oct 20 10:38:04 2017


Gurobi 6.0.5 (linux64) logging started Fri Oct 20 10:38:05 2017


Gurobi 6.0.5 (linux64) logging started Fri Oct 20 10:38:05 2017


Gurobi 6.0.5 (linux64) logging started Fri Oct 20 10:38:06 2017


Gurobi 6.0.5 (linux64) logging started Fri Oct 20 10:38:07 2017


Gurobi 6.0.5 (linux64) logging started Fri Oct 20 10:38:08 2017


Gurobi 6.0.5 (linux64) logging started Fri Oct 20 10:38:09 2017


Gurobi 6.0.5 (linux64) logging started Fri Oct 20 10:38:11 2017


Gurobi 6.0.5 (linux64) logging started Fri Oct 20 10:38:13 2017


Gurobi 6.0.5 (linux64) logging started Fri Oct 20 10:38:22 2017


Gurobi 6.0.5 (linux64) logging started Fri Oct 20 10:38:23 2017


Gurobi 6.0.5 (linux64) logging started Fri Oct 20 10:38:23 2017


Gurobi 6.0.5 (linux64) logging started Fri Oct 20 10:38:24 2017


Gurobi 6.0.5 (linux64) logging started Fri Oct 20 10:38:25 2017


Gurobi 6.0.5 (linux64) logging started Fri Oct 20 10:38:26 2017


Gurobi 6.0.5 (linux64) logging started Fri Oct 20 10:38:27 2017


Gurobi 6.0.5 (linux64) logging started Fri Oct 20 10:38:28 2017


Gurobi 6.0.5 (linux64) logging started Fri Oct 20 10:38:30 2017

